sifdecoder -A pc64.lnx.gfo -st   A5NNDNSL

 Problem name: A5NNDNSL

 Double precision version will be formed

 The objective function uses 2 linear groups
 
 There are 20004 linear equality constraints
 
 There are 15004 free variables
 There are 10000 variables bounded only from below 
 There are 35008 fixed variables
 
 
 File successfully decoded
 CUTEST: tools (double precision version) compiled successfully
 CUTEst: ipopt (double precision version) compiled successfully

******************************************************************************
This program contains Ipopt, a library for large-scale nonlinear optimization.
 Ipopt is released as open source code under the Eclipse Public License (EPL).
         For more information visit http://projects.coin-or.org/Ipopt
******************************************************************************

This is Ipopt version trunk, running with linear solver ma57.

Number of nonzeros in equality constraint Jacobian...:    78026
Number of nonzeros in inequality constraint Jacobian.:        0
Number of nonzeros in Lagrangian Hessian.............:    30004

Total number of variables............................:    25004
                     variables with only lower bounds:    10000
                variables with lower and upper bounds:        0
                     variables with only upper bounds:        0
Total number of equality constraints.................:    20004
Total number of inequality constraints...............:        0
        inequality constraints with only lower bounds:        0
   inequality constraints with lower and upper bounds:        0
        inequality constraints with only upper bounds:        0

iter    objective    inf_pr   inf_du lg(mu)  ||d||  lg(rg) alpha_du alpha_pr  ls
   0  4.9999900e-01 9.92e+01 6.30e-01  -1.0 0.00e+00    -  0.00e+00 0.00e+00   0
   1  5.0760443e-01 9.90e+01 1.09e+00  -1.0 1.19e+02    -  9.97e-04 2.00e-03h  1
   2  5.6127215e-01 9.89e+01 1.09e+00  -1.0 1.25e+02    -  1.71e-03 1.72e-03f  1
   3  6.4560069e-01 9.87e+01 1.09e+00  -1.0 6.67e+01    -  1.86e-03 1.94e-03f  1
   4  7.4937061e-01 9.85e+01 1.09e+00  -1.0 5.81e+01    -  1.93e-03 2.11e-03f  1
   5  8.8659835e-01 9.82e+01 1.08e+00  -1.0 3.66e+01    -  2.58e-03 2.60e-03f  1
   6  1.0647426e+00 9.79e+01 1.08e+00  -1.0 3.11e+01    -  2.62e-03 3.15e-03f  1
   7  1.3440217e+00 9.75e+01 1.67e+00  -1.0 4.21e+01    -  3.46e-03 4.61e-03f  1
   8  1.7630457e+00 9.68e+01 1.73e+00  -1.0 2.88e+01    -  5.21e-03 6.37e-03f  1
   9  2.3558945e+00 9.60e+01 2.97e+00  -1.0 3.14e+01    -  5.75e-03 8.24e-03f  1
iter    objective    inf_pr   inf_du lg(mu)  ||d||  lg(rg) alpha_du alpha_pr  ls
  10  3.5665977e+00 9.46e+01 4.26e+00  -1.0 1.35e+01    -  8.77e-03 1.50e-02f  1
  11  6.7594151e+00 9.15e+01 5.31e+00  -1.0 1.66e+01    -  1.73e-02 3.30e-02f  1
  12  1.1772588e+02 5.03e+01 5.87e+01  -1.0 1.48e+01    -  3.06e-02 4.50e-01f  1
  13  1.5599671e+02 2.63e+01 3.11e+01  -1.0 7.05e+00    -  5.36e-01 4.78e-01f  1
  14  2.6406765e+02 1.01e+01 1.16e+01  -1.0 1.11e+01    -  5.11e-01 6.17e-01f  1
  15  3.8205421e+02 1.34e+00 1.24e+01  -1.0 1.31e+01    -  7.50e-01 8.67e-01h  1
  16  3.9122552e+02 1.04e+00 2.31e+02  -1.0 6.28e+01    -  5.43e-01 2.24e-01f  1
  17  3.9780107e+02 8.28e-01 3.79e+02  -1.0 8.17e+01    -  4.09e-01 2.06e-01f  1
  18  4.1458630e+02 2.56e-01 3.17e+02  -1.0 1.03e+02    -  3.35e-01 6.90e-01h  1
  19  4.1891214e+02 1.54e-01 1.85e+02  -1.0 1.60e+02    -  4.94e-01 3.98e-01h  1
iter    objective    inf_pr   inf_du lg(mu)  ||d||  lg(rg) alpha_du alpha_pr  ls
  20  4.2222714e+02 7.65e-02 2.94e+02  -1.0 6.53e+01    -  5.34e-01 5.04e-01h  1
  21  4.2255057e+02 6.96e-02 7.45e+03  -1.0 1.08e+03    -  6.35e-01 9.05e-02f  1
  22  4.2437535e+02 2.13e-02 5.31e+03  -1.0 2.28e+02    -  2.23e-01 6.94e-01f  1
  23  4.2499554e+02 1.18e-02 9.53e+03  -1.0 4.04e+02    -  7.02e-01 4.46e-01h  1
  24  4.2508015e+02 1.07e-02 2.82e+04  -1.0 3.08e+03    -  3.14e-01 9.43e-02f  1
  25  4.2549053e+02 3.79e-03 2.61e+03  -1.0 1.17e+03    -  5.44e-01 6.45e-01f  1
Reallocating memory for MA57: lfact (1019427)
  26  4.2552301e+02 3.52e-03 9.75e+04  -1.0 1.17e+04    -  4.18e-01 7.33e-02f  1
Reallocating memory for MA57: lfact (1244431)
  27  4.2567094e+02 1.18e-03 2.36e+04  -1.0 1.11e+04    -  4.74e-01 6.66e-01f  1
Reallocating memory for MA57: lfact (1903001)
  28  4.2570195e+02 6.39e-04 9.07e+04  -1.0 6.54e+04    -  3.83e-01 4.56e-01f  1
Reallocating memory for MA57: lfact (3323548)
  29  4.2572037e+02 4.54e-04 6.81e+05  -1.0 1.47e+04    -  8.22e-01 2.90e-01f  2
Reallocating memory for MA57: lfact (4085187)
iter    objective    inf_pr   inf_du lg(mu)  ||d||  lg(rg) alpha_du alpha_pr  ls
  30  4.2575605e+02 4.33e-04 1.28e+06  -1.0 7.50e+05    -  4.61e-01 4.50e-02f  1
  31  4.2595696e+02 2.17e-04 3.23e+05  -1.0 7.94e+04    -  2.81e-01 5.00e-01f  2
  32  4.2597092e+02 1.90e-04 1.82e+06  -1.0 7.35e+04    -  7.92e-01 1.25e-01f  4
  33  4.2600511e+02 1.51e-04 2.40e+06  -1.0 1.99e+05    -  6.98e-01 2.01e-01f  1
  34  4.2600716e+02 1.47e-04 3.93e+06  -1.0 9.00e+04    -  1.00e+00 3.12e-02f  6
  35  4.2600867e+02 1.43e-04 4.72e+06  -1.0 5.12e+05    -  8.86e-01 2.34e-02f  6
  36  4.2549277e+02 1.04e-09 1.00e-06  -1.0 8.65e+04    -  1.00e+00 1.00e+00h  1
  37  5.4220063e+01 8.26e-10 6.78e+00  -5.7 3.79e+01    -  9.94e-01 9.94e-01f  1
  38  1.2003349e+01 5.07e-09 5.87e-03  -5.7 3.74e-01  -4.0 9.99e-01 9.99e-01f  1
  39  2.4985204e+00 5.08e-09 1.72e-03  -5.7 1.40e+00  -4.5 9.90e-01 9.90e-01f  1
iter    objective    inf_pr   inf_du lg(mu)  ||d||  lg(rg) alpha_du alpha_pr  ls
  40  4.1182072e-01 5.08e-09 2.08e-02  -5.7 4.81e+00  -5.0 7.53e-01 7.55e-01f  1
  41 -3.6107273e-01 5.08e-09 4.68e-03  -5.7 1.56e+00  -5.4 7.94e-01 7.94e-01f  1
  42 -6.5228600e-01 5.09e-09 3.87e-02  -5.7 1.79e+00  -5.9 9.53e-01 9.50e-01f  1
  43 -7.2057644e-01 5.08e-09 9.51e-06  -5.7 3.61e-01  -4.6 1.00e+00 1.00e+00f  1
  44 -7.4224230e-01 5.09e-09 1.59e-01  -8.6 8.25e-02  -5.1 9.74e-01 9.76e-01f  1
  45 -7.4472354e-01 5.10e-09 1.31e-01  -8.6 5.51e-02  -5.5 9.63e-01 9.65e-01f  1
  46 -7.4505146e-01 8.53e-09 2.23e-02  -8.6 4.65e-02  -6.0 9.51e-01 9.51e-01h  1
  47 -7.4510177e-01 5.73e-09 4.64e-08  -8.6 1.78e-02  -5.6 1.00e+00 1.00e+00f  1

Number of Iterations....: 47

                                   (scaled)                 (unscaled)
Objective...............:  -7.4510177454978987e-01   -7.4510177454978987e-01
Dual infeasibility......:   4.6350059121163216e-08    4.6350059121163216e-08
Constraint violation....:   5.7318839640134205e-09    5.7318839640134205e-09
Complementarity.........:   8.3355926288249764e-08    8.3355926288249764e-08
Overall NLP error.......:   5.7318839640134205e-09    8.3355926288249764e-08


Number of objective function evaluations             = 63
Number of objective gradient evaluations             = 48
Number of equality constraint evaluations            = 63
Number of inequality constraint evaluations          = 0
Number of equality constraint Jacobian evaluations   = 48
Number of inequality constraint Jacobian evaluations = 0
Number of Lagrangian Hessian evaluations             = 47
Total CPU secs in IPOPT (w/o function evaluations)   =     13.681
Total CPU secs in NLP function evaluations           =      2.662

EXIT: Optimal Solution Found.

************************ CUTEst statistics ************************


 Package used            :  IPOPT
 Problem                 :  A5NNDNSL  
 # variables             =           60012
 # constraints           =           20004
 # objective functions   =        0.1120000E+03
 # objective gradients   =        0.4900000E+02
 # objective Hessians    =        0.4800000E+02
 # Hessian-vector prdct  =        0.0000000E+00
 # constraints functions =        0.1130000E+03
 # constraints gradients =        0.5000000E+02
 # constraints Hessians  =        0.4800000E+02
 Exit code               =               0
 Final f                 =       -7.4510177454978987D-01
 Bounds feasibility      =        9.9999549571308675D-09
 Set up time             =            0.72 seconds
 Solve time              =           32.79 seconds


******************************************************************

